SCIP version 5.0.0 [precision: 8 byte] [memory: block] [mode: optimized] [LP solver: NONE] [GitHash: 3bbd232]
Copyright (C) 2002-2017 Konrad-Zuse-Zentrum fuer Informationstechnik Berlin (ZIB)

External codes: 
  Readline EditLine w  GNU library for command line editing (gnu.org/s/readline)
  CppAD 20160000.1     Algorithmic Differentiation of C++ algorithms developed by B. Bell (www.coin-or.org/CppAD)
  ZLIB 1.2.5           General purpose compression library by J. Gailly and M. Adler (zlib.net)
  GMP 6.1.2            GNU Multiple Precision Arithmetic Library developed by T. Granlund (gmplib.org)

user parameter file <scip.set> not found - using default parameters

read problem <../../Split_data/output/spectf/8/0_sample_spectf.logreg>
============

File name	:	../../Split_data/output/spectf/8/0_sample_spectf.logreg
Problem name 	:	0_sample_spectf
Number of data	:	213
Number of var	:	44
The given data has linear independence

[dim=1] time: 0.008097
[dim=2] time: 0.016364
[dim=3] time: 0.025564
[dim=4] time: 0.032217
[dim=5] time: 0.039018
[dim=6] time: 0.044931
[dim=7] time: 0.050931
[dim=8] time: 0.056638
[dim=9] Time of forward = 0.06239sec.
AIC: 136.676
k: 8

[dim=44] time: 0.029281
[dim=43] time: 0.046501
[dim=42] time: 0.064424
[dim=41] time: 0.080823
[dim=40] time: 0.096963
[dim=39] time: 0.110853
[dim=38] time: 0.123874
[dim=37] time: 0.135745
[dim=36] time: 0.149566
[dim=35] time: 0.163593
[dim=34] time: 0.177955
[dim=33] time: 0.188022
[dim=32] time: 0.199911
[dim=31] time: 0.210773
[dim=30] time: 0.221098
[dim=29] time: 0.2311
[dim=28] time: 0.242274
[dim=27] time: 0.251883
[dim=26] time: 0.259758
[dim=25] time: 0.275484
[dim=24] time: 0.285382
[dim=23] time: 0.29586
[dim=22] time: 0.302219
[dim=21] time: 0.308188
[dim=20] time: 0.313727
[dim=19] time: 0.319293
[dim=18] time: 0.324813
[dim=17] Time of backward = 0.329541sec.
AIC: 139.812
k: 18
